Route #1: 24
Route #2: 19
Route #3: 28
Route #4: 7
Route #5: 23 30 51 3 15 44 13
Route #6: 31 18 53 2 64 61 67 21
Route #7: 34 14 42 57 54 26 52 43
Route #8: 58 22 12 29 40 38 39
Route #9: 36 1 48 16 50 37 46 5
Route #10: 62 56 8 59 20 41 68 66
Route #11: 33 49 9 6 45 35
Route #12: 25 11 63 32 17 10
Route #13: 27 65 55 60 4 47
cost: 1343.353051799893
